
List of user-set options:

                                    Name   Value                used
                           compl_inf_tol = 1                     yes
                         constr_viol_tol = 1                     yes
                            dual_inf_tol = 1000                  yes
                           linear_solver = ma97                  yes
                              ma86_small = 1e-30                  no
                                  ma86_u = 0.0001                 no
                              ma97_order = best                  yes
                              ma97_small = 1e-30                 yes
                            ma97_switch1 = at_start              yes
                            ma97_switch2 = od_hd_reuse           yes
                                  ma97_u = 1e-06                 yes
                               ma97_umax = 0.5                   yes
                                max_iter = 2000                  yes
                    max_refinement_steps = 20                    yes
                    min_refinement_steps = 5                     yes
                                 mu_init = 1e-06                 yes
           mu_superlinear_decrease_power = 1.25                  yes
                   nlp_scaling_min_value = 1e-08                 yes
                        option_file_name = Preset_Case:_127_NCP.opt  yes
                             output_file = ./tmp/Preset_Case:_127_NCP.output  yes
                      print_user_options = yes                   yes
        required_infeasibility_reduction = 1                      no
                                     tol = 1e-08                 yes
                   warm_start_bound_frac = 1e-20                 yes
                   warm_start_bound_push = 1e-20                 yes
                   warm_start_init_point = yes                   yes
              warm_start_mult_bound_push = 1e-20                 yes
                warm_start_mult_init_max = 1e+40                 yes
             warm_start_slack_bound_frac = 1e-20                 yes
             warm_start_slack_bound_push = 1e-20                 yes

******************************************************************************
This program contains Ipopt, a library for large-scale nonlinear optimization.
 Ipopt is released as open source code under the Eclipse Public License (EPL).
         For more information visit http://projects.coin-or.org/Ipopt
******************************************************************************

This is Ipopt version 3.12.10, running with linear solver ma97.

Number of nonzeros in equality constraint Jacobian...:   117140
Number of nonzeros in inequality constraint Jacobian.:      213
Number of nonzeros in Lagrangian Hessian.............:    47462

Total number of variables............................:    29971
                     variables with only lower bounds:    11312
                variables with lower and upper bounds:    15132
                     variables with only upper bounds:        0
Total number of equality constraints.................:    29864
Total number of inequality constraints...............:       25
        inequality constraints with only lower bounds:        4
   inequality constraints with lower and upper bounds:        0
        inequality constraints with only upper bounds:       21

iter    objective    inf_pr   inf_du lg(mu)  ||d||  lg(rg) alpha_du alpha_pr  ls
   0 -5.6546772e-02 9.16e-02 1.02e+02  -6.0 0.00e+00    -  0.00e+00 0.00e+00   0
In iteration 0, 1 Slack too small, adjusting variable bound
   1 -5.6546772e-02 9.16e-02 9.98e+02  -6.0 1.01e+04   0.0 1.08e-07 8.16e-14f  1
In iteration 1, 1 Slack too small, adjusting variable bound
   2 -5.6546772e-02 9.16e-02 1.42e+03  -6.0 5.98e+03  -0.5 5.38e-08 2.04e-11f  1
   3 -5.6546779e-02 9.16e-02 6.25e+03  -6.0 6.63e+03  -1.0 6.29e-07 1.13e-07f  1
   4 -5.6546918e-02 9.16e-02 1.50e+04  -6.0 6.86e+03  -1.4 5.03e-06 2.27e-06f  1
   5 -5.6548996e-02 9.15e-02 3.33e+04  -6.0 6.85e+03  -1.9 4.02e-05 2.29e-05f  1
   6 -5.6560936e-02 9.15e-02 1.39e+04  -6.0 6.83e+03  -2.4 6.28e-05 1.18e-04f  1
   7 -5.6573357e-02 9.14e-02 5.41e+04  -6.0 6.76e+03  -2.0 5.29e-05 1.27e-04f  1
   8 -5.6621974e-02 9.11e-02 9.25e+04  -6.0 6.65e+03  -2.4 1.11e-04 2.47e-04f  1
   9 -5.6678280e-02 9.07e-02 3.31e+05  -6.0 6.50e+03  -2.0 6.73e-05 3.90e-04f  1
iter    objective    inf_pr   inf_du lg(mu)  ||d||  lg(rg) alpha_du alpha_pr  ls
  10 -5.6733922e-02 9.02e-02 3.05e+05  -6.0 6.06e+03  -2.5 2.86e-04 1.31e-04f  1
  11 -5.6804667e-02 8.96e-02 1.58e+05  -6.0 6.11e+03  -2.1 6.26e-04 3.65e-04f  1
  12 -5.6859237e-02 8.91e-02 1.45e+05  -6.0 8.32e+03  -2.5 3.48e-04 8.52e-05f  1
  13r-5.6859237e-02 8.91e-02 1.00e+03  -1.0 0.00e+00  -3.0 0.00e+00 1.56e-10R  2
  14r-5.6866173e-02 8.91e-02 1.00e+03  -1.0 9.41e+04    -  2.06e-07 5.78e-08f  1
  15r-5.6866173e-02 8.91e-02 9.99e+02  -1.0 0.00e+00    -  0.00e+00 3.77e-09R  2
  16r-5.6869420e-02 8.91e-02 9.99e+02  -1.0 8.17e+03    -  6.38e-07 2.37e-07f  1
  17 -5.6869429e-02 8.91e-02 3.14e+04  -6.0 3.54e+00    -  5.24e-01 2.17e-05h  1
  18 -5.6915386e-02 8.90e-02 6.66e+04  -6.0 5.68e+03    -  3.52e-04 1.34e-04h  1
  19 -5.6952055e-02 8.90e-02 3.80e+04  -6.0 5.34e+03    -  4.36e-08 1.99e-04f  1
iter    objective    inf_pr   inf_du lg(mu)  ||d||  lg(rg) alpha_du alpha_pr  ls
  20 -5.6986269e-02 8.89e-02 2.55e+05  -6.0 5.12e+03    -  1.99e-03 2.19e-04h  1
  21 -5.7418131e-02 8.82e-02 1.54e+05  -6.0 5.29e+03    -  7.96e-04 2.80e-03f  1
  22 -5.7483340e-02 9.88e-02 1.64e+05  -6.0 3.52e+03    -  6.85e-03 2.49e-03h  1
  23 -5.7053726e-02 6.81e-01 1.91e+05  -6.0 2.81e+03    -  7.31e-03 1.23e-02h  2
  24 -5.7009511e-02 6.81e-01 1.82e+05  -6.0 1.49e+03    -  4.32e-03 8.29e-04h  2
  25 -5.6972994e-02 6.82e-01 1.85e+05  -6.0 1.39e+03    -  1.62e-08 1.34e-03f  5
  26 -5.6819068e-02 7.21e-01 1.75e+05  -6.0 1.32e+03    -  1.27e-02 9.24e-03h  3
  27 -5.6712994e-02 7.46e-01 1.74e+05  -6.0 1.06e+03    -  1.00e-02 1.05e-02h  3
  28 -5.6585714e-02 8.32e-01 1.78e+05  -6.0 8.85e+02    -  1.82e-02 2.43e-02h  2
  29 -5.6599498e-02 9.72e-01 1.95e+05  -6.0 6.54e+02    -  2.23e-02 5.35e-02h  1
iter    objective    inf_pr   inf_du lg(mu)  ||d||  lg(rg) alpha_du alpha_pr  ls
  30 -5.6599569e-02 9.72e-01 1.81e+05  -6.0 4.71e+02    -  3.15e-02 4.17e-05h  1
  31 -5.6761759e-02 1.04e+00 1.91e+05  -6.0 4.85e+02    -  3.36e-02 1.02e-01f  1
  32 -5.7192107e-02 9.83e-01 2.97e+05  -6.0 3.15e+02    -  7.58e-05 5.06e-02h  1
  33 -5.7202306e-02 9.65e-01 3.13e+05  -6.0 3.46e+02    -  9.78e-04 1.88e-02h  1
  34 -5.7001733e-02 9.24e-01 2.84e+05  -6.0 3.84e+02    -  1.53e-02 6.01e-02h  3
  35 -5.6869774e-02 8.93e-01 2.88e+05  -6.0 3.34e+02    -  9.57e-02 3.94e-02h  1
  36 -5.6825238e-02 8.81e-01 3.18e+05  -6.0 3.13e+02    -  1.54e-01 1.36e-02h  5
  37 -5.6803327e-02 8.75e-01 3.58e+05  -6.0 3.09e+02    -  2.56e-01 6.70e-03h  6
  38 -5.6792385e-02 8.72e-01 3.80e+05  -6.0 3.07e+02    -  3.09e-01 3.37e-03h  7
  39 -5.6789686e-02 8.72e-01 3.82e+05  -6.0 3.04e+02    -  3.24e-01 8.57e-04h  9
iter    objective    inf_pr   inf_du lg(mu)  ||d||  lg(rg) alpha_du alpha_pr  ls
  40 -5.6788377e-02 8.71e-01 3.67e+05  -6.0 3.00e+02    -  3.84e-01 4.38e-04h 10
  41 -5.6460379e-02 8.19e-01 3.06e+05  -6.0 3.17e+02    -  4.15e-01 1.16e-01h  2
  42 -5.5805800e-02 7.07e-01 2.41e+05  -6.0 4.32e+02    -  3.24e-01 1.73e-01H  1
  43 -5.5687851e-02 6.91e-01 2.37e+05  -6.0 3.77e+02    -  8.67e-03 2.31e-02h  1
  44 -5.5423980e-02 6.65e-01 2.31e+05  -6.0 3.92e+02    -  4.18e-03 4.18e-02H  1
  45 -5.5402345e-02 6.62e-01 2.24e+05  -6.0 3.59e+02    -  6.70e-02 3.42e-03h  1
  46 -5.4898261e-02 6.10e-01 2.09e+05  -6.0 3.67e+02    -  4.80e-02 8.18e-02H  1
  47 -5.4895119e-02 6.10e-01 2.03e+05  -6.0 3.09e+02    -  6.87e-02 6.07e-04h  1
  48 -5.4147777e-02 5.17e-01 1.87e+05  -6.0 3.31e+02    -  1.30e-02 1.29e-01h  2
  49 -5.3260501e-02 5.24e-01 1.62e+05  -6.0 2.31e+02    -  6.75e-02 1.80e-01h  1
iter    objective    inf_pr   inf_du lg(mu)  ||d||  lg(rg) alpha_du alpha_pr  ls
  50 -5.2069189e-02 4.94e-01 1.19e+05  -6.0 1.60e+02    -  7.41e-02 3.52e-01H  1
  51 -5.1486729e-02 2.58e-01 5.49e+04  -6.0 7.36e+01    -  5.41e-01 5.42e-01h  1
  52 -5.1773142e-02 1.17e-01 1.97e+04  -6.0 2.57e+01    -  3.97e-01 1.00e+00h  1
  53 -5.2603361e-02 9.81e-02 1.56e+04  -6.0 3.84e+01    -  2.04e-01 1.61e-01h  1
  54 -5.3374688e-02 8.76e-02 2.79e+04  -6.0 5.64e+01    -  1.55e-01 1.07e-01h  1
  55 -5.5715534e-02 8.33e-02 2.41e+06  -6.0 8.10e+02    -  1.07e-03 2.29e-02h  1
  56 -5.5705088e-02 6.23e-01 4.24e+05  -6.0 3.84e+01    -  6.61e-02 8.14e-01f  1
  57 -5.8667761e-02 3.38e-01 9.62e+04  -6.0 2.36e+01    -  2.36e-04 7.74e-01h  1
  58 -5.9810464e-02 3.43e-01 8.97e+04  -6.0 3.84e+02    -  1.36e-01 6.70e-02f  1
  59 -6.3109596e-02 1.74e-01 3.39e+04  -6.0 2.36e+01    -  6.85e-01 6.21e-01h  1
iter    objective    inf_pr   inf_du lg(mu)  ||d||  lg(rg) alpha_du alpha_pr  ls
  60 -6.9226921e-02 1.46e+00 1.03e+02  -6.0 2.48e+01    -  4.48e-04 1.00e+00h  1
  61 -7.2971831e-02 1.57e+00 7.85e+01  -6.0 4.04e+01    -  2.39e-01 5.22e-01h  1
  62 -7.6163658e-02 1.58e+00 4.07e+01  -6.0 4.71e+01    -  4.84e-01 3.71e-01h  1
  63 -7.9458137e-02 1.68e+00 6.50e+01  -6.0 6.58e+01    -  5.86e-01 2.69e-01h  1
Error in an AMPL evaluation. Run with "halt_on_ampl_error yes" to see details.
Warning: Cutting back alpha due to evaluation error
  64 -8.1092965e-02 1.55e+00 9.99e+01  -6.0 2.49e+02    -  5.41e-01 9.33e-02h  2
Error in an AMPL evaluation. Run with "halt_on_ampl_error yes" to see details.
Warning: Cutting back alpha due to evaluation error
  65 -8.3464910e-02 1.37e+00 1.32e+02  -6.0 6.41e+02    -  4.05e-01 1.22e-01h  2
Error in an AMPL evaluation. Run with "halt_on_ampl_error yes" to see details.
Warning: Cutting back alpha due to evaluation error
  66 -8.6808100e-02 1.74e+00 1.56e+02  -6.0 1.14e+03    -  6.01e-01 1.68e-01h  2
  67 -9.1394688e-02 4.77e+00 1.56e+02  -6.0 3.66e+03    -  2.79e-01 1.44e-01h  1
Error in an AMPL evaluation. Run with "halt_on_ampl_error yes" to see details.
Warning: Cutting back alpha due to evaluation error
  68 -1.0006025e-01 1.55e+01 1.61e+02  -6.0 3.48e+03    -  3.37e-01 2.50e-01h  2
  69 -1.1020812e-01 2.59e+01 1.86e+02  -6.0 2.71e+03    -  1.34e-01 3.64e-01h  1
iter    objective    inf_pr   inf_du lg(mu)  ||d||  lg(rg) alpha_du alpha_pr  ls
  70 -1.1357525e-01 1.74e+01 1.62e+02  -6.0 1.27e+03    -  2.21e-01 3.96e-01h  1
  71 -1.1530468e-01 1.18e+01 1.25e+02  -6.0 5.29e+02    -  2.33e-01 3.55e-01h  1
  72 -1.1623542e-01 1.06e+01 7.68e+01  -6.0 2.84e+03    -  4.59e-01 1.03e-01h  1
  73 -1.1708458e-01 9.46e+00 1.57e+02  -6.0 1.46e+03    -  5.84e-01 1.14e-01h  1
  74 -1.1936537e-01 7.87e+00 2.70e+02  -6.0 4.56e+03    -  3.10e-01 1.89e-01h  1
  75 -1.2125244e-01 6.70e+00 2.51e+02  -6.0 9.32e+03    -  1.71e-01 1.70e-01h  1
  76 -1.2217391e-01 5.74e+00 3.01e+03  -6.0 1.44e+03    -  1.24e-01 1.88e-01h  1
  77 -1.2437552e-01 5.10e+00 2.54e+03  -6.0 2.48e+03    -  4.69e-02 4.73e-01h  1
  78 -1.2606366e-01 5.01e+00 1.17e+03  -6.0 3.25e+03    -  3.95e-01 5.39e-01h  1
  79 -1.2679187e-01 6.31e+00 8.62e+02  -6.0 3.62e+03    -  1.62e-01 2.64e-01h  1
iter    objective    inf_pr   inf_du lg(mu)  ||d||  lg(rg) alpha_du alpha_pr  ls
  80 -1.2723244e-01 5.61e+00 6.91e+02  -6.0 3.03e+03    -  3.78e-01 1.96e-01h  1
  81 -1.2817932e-01 5.49e+00 3.81e+02  -6.0 3.64e+03    -  7.66e-01 4.48e-01h  1
  82 -1.2897954e-01 3.17e+01 2.04e+02  -6.0 5.16e+03    -  3.11e-01 4.66e-01h  1
  83 -1.2925913e-01 2.59e+01 1.52e+02  -6.0 4.70e+03    -  2.84e-01 2.54e-01h  1
  84 -1.2958230e-01 1.72e+01 1.45e+02  -6.0 3.56e+03    -  4.98e-01 3.41e-01h  1
  85 -1.2989529e-01 1.14e+01 4.34e+02  -6.0 2.61e+03    -  1.48e-02 3.37e-01h  1
  86 -1.2991072e-01 1.07e+01 5.95e+03  -6.0 1.08e+01  -3.5 7.72e-03 6.39e-02h  1
  87 -1.2989687e-01 6.58e+00 3.59e+03  -6.0 1.01e+01  -4.0 9.62e-02 3.83e-01h  1
  88 -1.2990138e-01 3.86e+00 2.11e+03  -6.0 6.35e+00  -4.4 4.16e-01 4.14e-01h  1
  89 -1.2991993e-01 3.18e+00 1.74e+03  -6.0 3.82e+00  -4.9 8.02e-01 1.76e-01h  1
iter    objective    inf_pr   inf_du lg(mu)  ||d||  lg(rg) alpha_du alpha_pr  ls
  90 -1.3012387e-01 6.75e-01 3.69e+02  -6.0 3.92e+00  -5.4 3.41e-01 7.88e-01h  1
  91 -1.3047818e-01 4.17e-01 2.22e+02  -6.0 1.11e+01  -5.9 8.66e-02 3.82e-01h  1
  92 -1.3057960e-01 5.18e+00 2.32e+03  -6.0 1.61e+01  -6.4 4.39e-01 7.62e-01h  1
  93 -1.3074567e-01 2.52e+00 8.00e+02  -6.0 3.30e+00  -5.0 2.23e-01 5.32e-01h  1
  94 -1.3114718e-01 1.57e+00 2.19e+01  -6.0 6.90e+00  -5.5 7.47e-01 5.80e-01h  1
  95 -1.3191764e-01 8.24e+00 9.46e+01  -6.0 1.10e+01  -6.0 1.00e+00 1.00e+00h  1
  96 -1.3227061e-01 1.05e+01 1.11e+03  -6.0 3.05e+01  -6.5 2.54e-01 1.98e-01h  1
  97 -1.3232877e-01 9.72e+00 3.92e+03  -6.0 1.97e+01  -6.9 5.35e-01 7.43e-02h  1
  98 -1.3246643e-01 6.82e+00 2.67e+05  -6.0 4.14e+01  -7.4 1.30e-02 2.98e-01h  1
  99 -1.3261335e-01 2.54e+00 9.98e+04  -6.0 1.60e+01  -7.0 2.12e-01 6.23e-01h  1
iter    objective    inf_pr   inf_du lg(mu)  ||d||  lg(rg) alpha_du alpha_pr  ls
 100 -1.3270014e-01 1.04e+00 4.03e+04  -6.0 4.12e+01  -7.5 1.00e+00 5.96e-01h  1
 101 -1.3288242e-01 2.27e-01 1.26e+03  -6.0 8.30e+01  -7.9 1.00e+00 9.68e-01h  1
 102 -1.3305634e-01 7.61e-01 5.15e+02  -6.0 1.63e+02  -8.4 5.68e-01 5.91e-01h  1
 103 -1.3310356e-01 3.09e-01 2.47e+02  -6.0 6.10e+01  -8.0 2.88e-01 5.19e-01h  1
 104 -1.3312002e-01 2.93e-01 2.36e+02  -6.0 5.55e+02  -8.5 7.51e-02 4.77e-02h  1
 105 -1.3324105e-01 9.30e-01 2.17e+02  -6.0 5.15e+03    -  4.51e-01 8.10e-02h  1
 106 -1.3345930e-01 1.21e+00 1.67e+02  -6.0 4.16e+03    -  9.96e-01 2.35e-01h  1
 107 -1.3368072e-01 3.50e+01 9.70e+01  -6.0 4.10e+03    -  2.34e-02 4.19e-01h  1
 108 -1.3367617e-01 2.46e+01 6.30e+01  -6.0 1.25e+03  -8.9 2.12e-01 3.52e-01h  1
 109 -1.3371051e-01 2.11e+01 5.40e+01  -6.0 5.49e+02  -9.4 8.03e-02 1.43e-01h  1
iter    objective    inf_pr   inf_du lg(mu)  ||d||  lg(rg) alpha_du alpha_pr  ls
 110 -1.3377079e-01 6.57e+00 1.59e+01  -6.0 3.77e+02  -9.0 4.77e-01 7.39e-01h  1
 111 -1.3383332e-01 2.38e-01 3.94e+00  -6.0 1.57e+02  -9.5 1.00e+00 1.00e+00h  1
 112 -1.3390190e-01 9.88e-01 8.50e-01  -6.0 3.36e+02 -10.0 1.00e+00 9.86e-01h  1
 113 -1.3391966e-01 5.57e-01 3.25e+00  -6.0 1.65e+02  -9.5 7.60e-02 1.00e+00h  1
 114 -1.3392074e-01 5.73e-01 3.85e+01  -6.0 4.91e+03    -  5.34e-01 7.86e-03h  2
 115 -1.3402258e-01 1.10e+00 3.76e+00  -6.0 2.21e+03    -  1.00e+00 5.77e-01h  1
 116 -1.3402772e-01 7.47e-01 9.52e+00  -6.0 8.68e+02    -  1.00e+00 1.59e-01h  1
 117 -1.3406227e-01 5.59e-01 6.67e+00  -6.0 7.82e+02    -  1.30e-01 1.00e+00h  1
 118 -1.3405449e-01 1.69e+00 3.61e+01  -6.0 2.45e+03    -  1.00e+00 1.31e-01h  1
 119 -1.3404615e-01 2.04e+00 2.67e+01  -6.0 1.20e+03    -  4.27e-01 2.03e-01h  1
iter    objective    inf_pr   inf_du lg(mu)  ||d||  lg(rg) alpha_du alpha_pr  ls
 120 -1.3405299e-01 1.56e-01 2.31e+01  -6.0 4.03e+01    -  2.58e-01 1.00e+00h  1
 121 -1.3405358e-01 2.63e-04 8.11e-04  -6.0 2.29e+00  -9.1 1.00e+00 1.00e+00h  1
 122 -1.3405395e-01 9.18e-05 1.33e-04  -6.0 2.93e+00    -  1.00e+00 1.00e+00h  1
 123 -1.3405395e-01 2.72e-07 8.97e-09  -6.0 5.25e-02    -  1.00e+00 1.00e+00h  1
 124 -1.3438767e-01 2.59e+00 2.93e+01  -7.5 2.66e+03    -  1.59e-01 2.43e-01h  1
 125 -1.3452872e-01 3.32e+00 8.07e+01  -7.5 2.21e+03    -  4.46e-01 1.85e-01h  1
 126 -1.3489235e-01 2.45e+01 7.63e+01  -7.5 2.42e+03    -  1.39e-01 5.00e-01h  1
 127 -1.3499129e-01 2.17e+01 7.62e+01  -7.5 6.03e+03    -  9.26e-02 1.16e-01h  1
 128 -1.3516766e-01 1.46e+01 1.55e+02  -7.5 4.94e+02  -9.6 8.39e-02 3.28e-01h  1
 129 -1.3518910e-01 1.45e+01 1.54e+02  -7.5 5.53e+03    -  8.15e-03 9.93e-03h  1
iter    objective    inf_pr   inf_du lg(mu)  ||d||  lg(rg) alpha_du alpha_pr  ls
 130 -1.3520824e-01 1.43e+01 1.37e+02  -7.5 4.25e+03    -  4.67e-02 9.16e-03h  1
 131 -1.3536681e-01 1.32e+01 1.39e+02  -7.5 6.86e+03    -  4.77e-02 7.73e-02h  1
 132 -1.3557285e-01 1.34e+01 1.68e+02  -7.5 1.85e+03    -  1.31e-01 3.08e-01h  1
 133 -1.3576486e-01 2.88e+01 1.98e+02  -7.5 4.02e+03    -  6.20e-02 2.94e-01h  1
 134 -1.3592926e-01 2.33e+01 1.74e+02  -7.5 1.15e+03    -  1.63e-01 2.26e-01h  1
 135 -1.3608258e-01 1.59e+01 2.50e+02  -7.5 1.05e+03    -  8.62e-02 3.17e-01h  1
 136 -1.3623104e-01 1.05e+01 8.29e+01  -7.5 1.03e+03    -  4.89e-01 3.43e-01h  1
 137 -1.3662729e-01 3.32e+01 4.41e+02  -7.5 1.27e+03    -  6.24e-01 9.95e-01h  1
 138 -1.3680850e-01 2.47e+01 1.85e+02  -7.5 1.16e+03    -  4.58e-01 4.41e-01h  1
 139 -1.3683698e-01 2.30e+01 6.91e+02  -7.5 1.61e+03    -  2.79e-03 7.51e-02h  1
iter    objective    inf_pr   inf_du lg(mu)  ||d||  lg(rg) alpha_du alpha_pr  ls
 140 -1.3709596e-01 2.74e+01 5.29e+03  -7.5 1.41e+03    -  2.16e-01 8.52e-01h  1
 141 -1.3717245e-01 2.37e+01 2.50e+03  -7.5 1.05e+03    -  2.12e-01 1.55e-01h  1
 142 -1.3730439e-01 2.73e+01 9.62e+03  -7.5 6.15e+03    -  8.70e-02 2.47e-01h  1
 143 -1.3735509e-01 2.56e+01 5.34e+03  -7.5 8.47e+03    -  1.05e-01 6.51e-02h  1
 144 -1.3735830e-01 2.54e+01 3.33e+06  -7.5 1.37e+04 -10.1 6.34e-05 8.06e-03h  1
 145 -1.3735961e-01 2.59e+01 3.32e+06  -7.5 6.29e+04    -  1.24e-02 3.54e-03f  1
 146 -1.3740772e-01 2.23e+01 2.79e+06  -7.5 1.56e+03    -  9.31e-03 1.60e-01h  1
 147 -1.3747566e-01 8.69e+00 5.51e+05  -7.5 7.62e+02    -  4.99e-01 8.02e-01h  1
 148 -1.3747457e-01 8.10e+00 5.14e+05  -7.5 3.98e+03 -10.5 2.92e-02 6.84e-02h  1
 149 -1.3746346e-01 7.93e+00 5.03e+05  -7.5 3.50e+02  -6.5 8.63e-04 2.09e-02h  1
iter    objective    inf_pr   inf_du lg(mu)  ||d||  lg(rg) alpha_du alpha_pr  ls
 150 -1.3745245e-01 6.10e+00 3.87e+05  -7.5 2.93e+01  -6.1 2.19e-01 2.30e-01h  1
 151 -1.3745092e-01 5.81e+00 3.69e+05  -7.5 1.90e+01  -6.5 3.41e-01 4.75e-02h  1
 152 -1.3745032e-01 4.08e+00 2.59e+05  -7.5 1.93e+00  -6.1 1.00e+00 2.97e-01h  1
 153 -1.3744807e-01 1.18e-03 3.17e+01  -7.5 1.65e+00  -6.6 2.88e-01 1.00e+00h  1
 154 -1.3748635e-01 2.72e-03 6.14e+00  -7.5 1.14e+01  -7.1 5.25e-01 1.00e+00h  1
 155 -1.3750073e-01 2.61e-03 1.41e+01  -7.5 2.76e+01  -7.5 7.26e-01 1.67e-01h  1
 156 -1.3751342e-01 2.56e+00 1.07e+01  -7.5 2.49e+04    -  4.72e-03 1.15e-02h  1
 157 -1.3754815e-01 2.16e+00 2.49e+00  -7.5 3.43e+02  -8.0 2.97e-01 4.90e-01h  1
 158 -1.3755174e-01 2.02e+00 6.42e+00  -7.5 7.70e+01  -8.5 5.25e-01 6.45e-02h  1
 159 -1.3757851e-01 1.13e+00 3.59e+00  -7.5 5.78e+01  -9.0 4.39e-01 4.41e-01h  1
iter    objective    inf_pr   inf_du lg(mu)  ||d||  lg(rg) alpha_du alpha_pr  ls
 160 -1.3758697e-01 8.87e-01 4.52e+00  -7.5 1.59e+02  -9.5 1.00e+00 2.15e-01h  1
 161 -1.3761125e-01 1.37e+01 5.09e+00  -7.5 4.61e+04    -  5.44e-03 2.13e-02h  1
 162 -1.3765647e-01 1.25e+01 4.48e+00  -7.5 1.75e+03    -  2.90e-02 1.58e-01h  1
 163 -1.3768672e-01 1.15e+01 3.94e+00  -7.5 6.30e+03    -  6.04e-02 8.30e-02h  1
 164 -1.3772381e-01 1.06e+01 7.05e+00  -7.5 1.70e+03    -  2.97e-02 3.32e-01h  1
 165 -1.3772652e-01 9.89e+00 6.52e+00  -7.5 4.06e+02  -9.9 5.20e-03 6.91e-02h  1
 166 -1.3773419e-01 9.57e+00 9.87e+00  -7.5 3.84e+02  -9.5 1.54e-01 3.28e-02h  1
 167 -1.3778803e-01 6.44e+01 3.03e+01  -7.5 1.40e+04    -  7.53e-03 1.39e-01h  1
 168 -1.3778761e-01 6.36e+01 2.99e+01  -7.5 4.70e+03    -  2.91e-02 1.37e-02h  1
 169 -1.3779210e-01 6.19e+01 2.91e+01  -7.5 3.98e+03    -  1.01e-01 2.70e-02h  1
iter    objective    inf_pr   inf_du lg(mu)  ||d||  lg(rg) alpha_du alpha_pr  ls
 170 -1.3779398e-01 6.19e+01 2.91e+01  -7.5 3.49e+04    -  5.26e-04 3.45e-03h  1
 171 -1.3781659e-01 5.20e+01 2.73e+01  -7.5 3.35e+03    -  5.52e-02 1.90e-01h  1
 172 -1.3781917e-01 4.90e+01 2.58e+01  -7.5 2.80e+02 -10.0 7.03e-02 5.68e-02h  1
 173 -1.3788897e-01 2.05e+01 8.19e+01  -7.5 1.06e+03 -10.5 8.82e-02 1.00e+00h  1
 174 -1.3789937e-01 1.88e+01 1.08e+02  -7.5 1.32e+03 -10.9 6.00e-01 9.49e-02h  1
 175 -1.3796006e-01 3.06e+01 1.62e+02  -7.5 2.62e+03 -11.4 8.03e-01 3.96e-01h  1
 176 -1.3797321e-01 3.45e+01 1.42e+02  -7.5 2.45e+04 -11.9 1.06e-02 4.05e-02h  1
 177 -1.3797822e-01 3.26e+01 1.28e+02  -7.5 2.04e+03 -12.4 3.96e-02 5.54e-02h  1
 178 -1.3799390e-01 3.81e+01 9.57e+01  -7.5 2.11e+04 -11.9 8.49e-03 4.24e-02h  1
 179 -1.3800742e-01 3.39e+01 3.17e+02  -7.5 2.27e+03    -  5.31e-01 1.16e-01h  1
iter    objective    inf_pr   inf_du lg(mu)  ||d||  lg(rg) alpha_du alpha_pr  ls
 180 -1.3801559e-01 3.19e+01 3.97e+02  -7.5 1.96e+03    -  2.96e-01 6.84e-02h  1
 181 -1.3801770e-01 3.12e+01 3.80e+02  -7.5 2.25e+03    -  9.84e-04 2.12e-02h  1
 182 -1.3805247e-01 2.83e+01 1.47e+02  -7.5 2.26e+03    -  1.37e-01 3.51e-01h  1
 183 -1.3808063e-01 2.41e+01 1.05e+03  -7.5 1.80e+03    -  7.80e-03 2.57e-01h  1
 184 -1.3808553e-01 2.33e+01 1.03e+03  -7.5 3.38e+03    -  8.33e-03 3.77e-02h  1
 185 -1.3808858e-01 2.27e+01 1.00e+03  -7.5 2.13e+04    -  3.76e-02 2.71e-02h  1
 186 -1.3809177e-01 2.20e+01 9.74e+02  -7.5 2.85e+03 -11.5 3.70e-02 3.20e-02h  1
 187 -1.3811912e-01 1.53e+01 9.13e+02  -7.5 6.24e+02 -11.1 5.09e-02 3.09e-01h  1
 188 -1.3816747e-01 3.79e+01 7.09e+02  -7.5 2.76e+03 -11.6 3.88e-01 4.67e-01h  1
 189 -1.3819103e-01 3.08e+01 2.66e+03  -7.5 1.07e+03    -  6.55e-01 2.18e-01h  1
iter    objective    inf_pr   inf_du lg(mu)  ||d||  lg(rg) alpha_du alpha_pr  ls
 190 -1.3821872e-01 3.40e+01 4.39e+03  -7.5 3.56e+03    -  4.33e-01 1.73e-01h  1
 191 -1.3824088e-01 3.04e+01 9.74e+03  -7.5 1.46e+03    -  5.83e-01 1.30e-01h  1
 192 -1.3831310e-01 2.59e+01 4.58e+03  -7.5 1.44e+03    -  2.73e-01 3.63e-01h  1
 193 -1.3831299e-01 2.59e+01 5.63e+05  -7.5 7.91e+03    -  1.36e-04 3.34e-03h  1
 194 -1.3831523e-01 2.55e+01 5.56e+05  -7.5 6.98e+03    -  7.24e-02 1.36e-02f  1
 195 -1.3831580e-01 2.53e+01 5.51e+05  -7.5 1.32e+03 -11.1 1.77e-02 7.93e-03h  1
 196 -1.3831664e-01 2.48e+01 5.41e+05  -7.5 1.22e+03 -11.6 3.21e-03 1.87e-02h  1
 197 -1.3831700e-01 2.42e+01 5.26e+05  -7.5 1.35e+03 -12.1 1.11e-02 2.73e-02h  1
 198 -1.3832231e-01 7.40e-03 5.62e+02  -7.5 2.98e+01    -  1.84e-01 1.00e+00f  1
 199 -1.3838288e-01 4.65e-01 3.76e+02  -7.5 5.61e+02 -10.8 3.15e-01 3.27e-01h  1
iter    objective    inf_pr   inf_du lg(mu)  ||d||  lg(rg) alpha_du alpha_pr  ls
 200 -1.3838539e-01 2.45e+00 3.73e+02  -7.5 3.95e+04    -  6.19e-02 9.62e-03h  1
 201 -1.3840653e-01 1.77e+01 2.01e+02  -7.5 2.37e+03    -  1.00e+00 4.63e-01h  1
 202 -1.3843177e-01 3.97e+01 8.70e+01  -7.5 2.76e+03    -  6.11e-01 5.70e-01h  1
 203 -1.3846087e-01 3.39e+01 1.30e+02  -7.5 1.73e+03    -  4.91e-01 9.45e-01h  1
 204 -1.3846046e-01 3.39e+01 1.29e+02  -7.5 3.61e+04    -  1.48e-03 1.63e-03h  5
 205 -1.3846046e-01 3.33e+01 1.32e+02  -7.5 1.09e+03 -11.2 4.99e-02 1.59e-02h  1
 206 -1.3846363e-01 2.72e+01 1.68e+02  -7.5 1.45e+03 -11.7 8.42e-01 2.19e-01h  1
 207 -1.3846535e-01 1.43e+01 6.88e+01  -7.5 1.68e+02    -  8.83e-02 4.76e-01h  1
 208 -1.3846613e-01 1.16e+01 8.06e+01  -7.5 4.90e+02    -  8.75e-01 1.95e-01h  1
 209 -1.3846549e-01 5.81e-03 5.03e+00  -7.5 2.73e+00    -  2.79e-01 1.00e+00h  1
iter    objective    inf_pr   inf_du lg(mu)  ||d||  lg(rg) alpha_du alpha_pr  ls
 210 -1.3846464e-01 5.29e-03 7.67e-02  -7.5 4.30e+00    -  1.00e+00 1.00e+00h  1
 211 -1.3846341e-01 1.33e-04 7.34e-04  -7.5 8.75e-01    -  1.00e+00 1.00e+00h  1
 212 -1.3846344e-01 2.44e-05 1.93e-04  -7.5 4.29e-01    -  1.00e+00 1.00e+00h  1
 213 -1.3846343e-01 2.55e-07 1.65e-06  -7.5 3.18e-02    -  1.00e+00 1.00e+00h  1
 214 -1.3846343e-01 1.93e-10 2.07e-10  -7.5 3.59e-04    -  1.00e+00 1.00e+00h  1
 215 -1.3846678e-01 1.86e-02 5.25e+00  -9.0 6.94e+01    -  2.05e-01 4.38e-01h  1
 216 -1.3846929e-01 1.97e+00 5.25e+00  -9.0 5.42e+03    -  3.24e-01 5.75e-02h  1
 217 -1.3847827e-01 2.50e+01 1.03e+02  -9.0 3.87e+03    -  7.51e-02 2.78e-01h  1
 218 -1.3848456e-01 3.12e+01 1.48e+02  -9.0 3.74e+04    -  5.25e-02 1.95e-02h  1
 219 -1.3848685e-01 2.98e+01 1.44e+02  -9.0 4.47e+03    -  2.45e-02 5.60e-02h  1
iter    objective    inf_pr   inf_du lg(mu)  ||d||  lg(rg) alpha_du alpha_pr  ls
 220 -1.3849473e-01 3.57e+01 2.57e+02  -9.0 4.45e+04    -  1.99e-02 1.92e-02h  1
 221 -1.3850050e-01 3.62e+01 2.35e+02  -9.0 4.28e+03    -  6.06e-02 1.14e-01h  1
 222 -1.3850092e-01 3.56e+01 2.32e+02  -9.0 1.61e+03    -  2.95e-03 1.49e-02h  1
 223 -1.3850188e-01 3.44e+01 2.23e+02  -9.0 1.67e+03    -  2.92e-02 3.72e-02h  1
 224 -1.3851210e-01 2.94e+01 1.74e+02  -9.0 1.66e+03    -  8.75e-02 3.91e-01h  1
 225 -1.3853505e-01 3.34e+01 1.33e+04  -9.0 1.58e+03    -  3.46e-03 6.87e-01h  1
 226 -1.3853529e-01 2.34e+01 9.21e+03  -9.0 3.25e+02    -  9.11e-03 3.05e-01h  1
 227 -1.3853582e-01 2.29e+01 9.03e+03  -9.0 6.98e+02    -  1.93e-01 1.89e-02h  1
 228 -1.3853543e-01 2.41e+00 7.48e+02  -9.0 1.92e+02    -  3.39e-01 9.17e-01h  1
 229 -1.3853488e-01 9.58e-01 2.96e+02  -9.0 1.68e+01    -  3.53e-03 6.04e-01h  1
iter    objective    inf_pr   inf_du lg(mu)  ||d||  lg(rg) alpha_du alpha_pr  ls
 230 -1.3853535e-01 3.15e-03 3.15e+00  -9.0 4.05e+00    -  2.73e-01 1.00e+00h  1
 231 -1.3853498e-01 1.31e-04 4.05e-03  -9.0 3.37e+00    -  1.00e+00 1.00e+00h  1
 232 -1.3853493e-01 1.24e-04 1.66e-04  -9.0 6.78e+01    -  1.00e+00 1.00e+00H  1
 233 -1.3853494e-01 1.58e-05 2.96e-03  -9.0 3.39e+02    -  3.65e-01 1.00e+00H  1
 234 -1.3853494e-01 2.18e-06 1.53e-06  -9.0 2.12e+01 -12.2 1.00e+00 1.00e+00H  1
 235 -1.3853495e-01 5.30e-05 1.86e-05  -9.0 8.02e+01 -12.7 1.00e+00 1.00e+00H  1
 236 -1.3853495e-01 7.83e-05 7.22e-03  -9.0 7.54e+02 -13.2 7.41e-01 1.95e-03h 10
 237 -1.3853495e-01 8.06e-07 4.61e-05  -9.0 1.26e+02 -12.7 1.00e+00 1.00e+00H  1
 238 -1.3853496e-01 1.43e+01 6.81e-03  -9.0 2.75e+03 -13.2 3.75e-02 2.22e-01H  1
 239 -1.3853495e-01 6.52e+00 3.42e-03  -9.0 4.88e+02    -  1.96e-01 5.00e-01h  2
iter    objective    inf_pr   inf_du lg(mu)  ||d||  lg(rg) alpha_du alpha_pr  ls
 240 -1.3853494e-01 3.26e+00 1.26e-03  -9.0 2.57e+01 -12.8 1.00e+00 5.00e-01h  2
 241 -1.3853494e-01 2.43e+00 1.29e-03  -9.0 1.52e+02 -13.3 1.00e+00 2.50e-01h  3
 242 -1.3853494e-01 1.82e+00 5.66e-04  -9.0 5.04e+01 -12.8 1.00e+00 2.50e-01h  3
 243 -1.3853496e-01 4.16e-02 1.87e-03  -9.0 4.47e+02 -13.3 6.69e-01 1.00e+00H  1
 244 -1.3853496e-01 1.23e+00 1.43e-03  -9.0 3.75e+02 -12.9 8.56e-01 5.00e-01h  2
 245 -1.3853511e-01 1.02e+01 2.48e-02  -9.0 1.98e+03 -13.4 5.04e-02 1.00e+00H  1
 246 -1.3853549e-01 9.63e+01 3.48e-02  -9.0 1.58e+04 -12.9 1.24e-01 1.85e-01h  1
 247 -1.3853544e-01 9.14e+01 9.90e-02  -9.0 3.89e+03    -  1.00e+00 5.77e-02h  4
 248 -1.3853555e-01 9.04e+01 5.69e-02  -9.0 1.16e+04    -  1.03e-01 3.37e-02h  1
 249 -1.3853633e-01 7.25e+01 8.49e-02  -9.0 2.21e+03    -  6.19e-01 1.00e+00h  1
iter    objective    inf_pr   inf_du lg(mu)  ||d||  lg(rg) alpha_du alpha_pr  ls
 250 -1.3853656e-01 5.82e+01 2.23e-01  -9.0 2.04e+03    -  2.85e-02 2.61e-01h  1
 251 -1.3853737e-01 6.05e+01 6.28e-01  -9.0 1.92e+03    -  4.29e-01 1.00e+00h  1
 252 -1.3853754e-01 4.97e+01 1.45e-01  -9.0 1.80e+03    -  3.61e-01 2.31e-01h  1
 253 -1.3853824e-01 5.28e+01 2.99e-02  -9.0 1.70e+03    -  9.89e-01 1.00e+00h  1
 254 -1.3853870e-01 3.32e+01 8.61e+01  -9.0 1.32e+03    -  6.87e-03 7.66e-01h  1
 255 -1.3853824e-01 2.53e+00 2.89e+01  -9.0 2.56e+03    -  1.08e-01 1.00e+00H  1
 256 -1.3853808e-01 3.61e-01 1.14e-02  -9.0 1.42e+02    -  9.99e-01 1.00e+00h  1
 257 -1.3853843e-01 1.36e+01 1.35e-02  -9.0 2.24e+05    -  1.52e-03 3.77e-03h  2
 258 -1.3853922e-01 4.54e+01 1.35e-02  -9.0 1.52e+03 -12.5 6.75e-01 1.00e+00h  1
 259 -1.3854009e-01 2.53e+01 3.07e-02  -9.0 1.05e+03 -12.1 7.12e-01 1.00e+00h  1
iter    objective    inf_pr   inf_du lg(mu)  ||d||  lg(rg) alpha_du alpha_pr  ls
 260 -1.3854086e-01 8.71e+00 4.52e-03  -9.0 5.96e+02 -11.7 1.00e+00 1.00e+00h  1
 261 -1.3854125e-01 1.03e+01 2.18e-02  -9.0 1.25e+04 -12.1 1.00e-01 2.21e-02h  1
 262 -1.3854118e-01 2.97e-01 1.61e-04  -9.0 1.21e+02    -  1.00e+00 1.00e+00h  1
 263 -1.3854135e-01 3.11e-01 3.75e-04  -9.0 1.17e+02    -  1.00e+00 9.54e-01h  1
 264 -1.3854136e-01 9.40e-06 1.95e-07  -9.0 9.36e-01    -  1.00e+00 1.00e+00h  1
 265 -1.3854136e-01 2.69e-10 8.24e-13  -9.0 1.41e-03    -  1.00e+00 1.00e+00h  1

Number of Iterations....: 265

                                   (scaled)                 (unscaled)
Objective...............:  -1.3854135657723687e-01   -1.3854135657723687e-01
Dual infeasibility......:   8.2359376736398021e-13    8.2359376736398021e-13
Constraint violation....:   2.6905115960672299e-10    2.6905115960672299e-10
Complementarity.........:   9.0909090920012672e-10    9.0909090920012672e-10
Overall NLP error.......:   9.0909090920012672e-10    9.0909090920012672e-10


Number of objective function evaluations             = 382
Number of objective gradient evaluations             = 266
Number of equality constraint evaluations            = 386
Number of inequality constraint evaluations          = 383
Number of equality constraint Jacobian evaluations   = 268
Number of inequality constraint Jacobian evaluations = 268
Number of Lagrangian Hessian evaluations             = 265
Total CPU secs in IPOPT (w/o function evaluations)   =    108.405
Total CPU secs in NLP function evaluations           =      4.415

EXIT: Optimal Solution Found.
